instances/knapsack/discrete_knapsack_uncertainty/knapsack_120_9.lp
\ Model knapsack_120_9
\ LP format - for model browsing. Use MPS format to capture full model detail.
\ Signature: 0x89f048c0c90eaa9
Minimize
  - 49 x[0] - 49 x[1] - 31 x[2] - 35 x[3] - 52 x[4] - 88 x[5] - 64 x[6]
   - 30 x[7] - 77 x[8] - 13 x[9] - 34 x[10] - 66 x[11] - 82 x[12]
   - 29 x[13] - 54 x[14] - 31 x[15] - x[16] - 5 x[17] - 29 x[18]
   - 100 x[19] - 16 x[20] - 6 x[21] - 59 x[22] - 15 x[23] - 12 x[24]
   - 81 x[25] - 91 x[26] - 86 x[27] - 41 x[28] - 19 x[29] - 8 x[30]
   - 71 x[31] - 3 x[32] - 2 x[33] - 90 x[34] - 20 x[35] - 36 x[36]
   - 38 x[37] - 93 x[38] - 98 x[39] - 83 x[40] - 28 x[41] - 24 x[42]
   - 78 x[43] - 73 x[44] - 54 x[45] - 55 x[46] - 91 x[47] - 79 x[48]
   - 36 x[49] - 42 x[50] - x[51] - 70 x[52] - 60 x[53] - 63 x[54]
   - 81 x[55] - 33 x[56] - 7 x[57] - 63 x[58] - 74 x[59] - 31 x[60]
   - 93 x[61] - 48 x[62] - 56 x[63] - 45 x[64] - 44 x[65] - 100 x[66]
   - 96 x[67] - 95 x[68] - 68 x[69] - 100 x[70] - 18 x[71] - 28 x[72]
   - 28 x[73] - 49 x[74] - 97 x[75] - 33 x[76] - 84 x[77] - 59 x[78]
   - 38 x[79] - 2 x[80] - 77 x[81] - 12 x[82] - 45 x[83] - 56 x[84]
   - 99 x[85] - 65 x[86] - 98 x[87] - 79 x[88] - 97 x[89] - 73 x[90]
   - 44 x[91] - 32 x[92] - 95 x[93] - 39 x[94] - 13 x[95] - 100 x[96]
   - 39 x[97] - 43 x[98] - 43 x[99] - 63 x[100] - 24 x[101] - 21 x[102]
   - 36 x[103] - 66 x[104] - 70 x[105] - 89 x[106] - 91 x[107] - 37 x[108]
   - 3 x[109] - 80 x[110] - 53 x[111] - 88 x[112] - 82 x[113] - 21 x[114]
   - 12 x[115] - 42 x[116] - 72 x[117] - 33 x[118] - 46 x[119]
Subject To
 primal_upper: 48 x[0] + 9 x[1] + 95 x[2] + 76 x[3] + 13 x[4] + 62 x[5]
   + 26 x[6] + 84 x[7] + 42 x[8] + 27 x[9] + 28 x[10] + 60 x[11] + 89 x[12]
   + 85 x[13] + 93 x[14] + 49 x[15] + 42 x[16] + 25 x[17] + 58 x[18]
   + 71 x[19] + 22 x[20] + 88 x[21] + 69 x[22] + 75 x[23] + 97 x[24]
   + 5 x[25] + 71 x[26] + 92 x[27] + 94 x[28] + 80 x[29] + 10 x[30]
   + 4 x[31] + 36 x[32] + 86 x[33] + 17 x[34] + 30 x[35] + 21 x[36]
   + 97 x[37] + 49 x[38] + 83 x[39] + 76 x[40] + 62 x[41] + 63 x[42]
   + 74 x[43] + 24 x[44] + 23 x[45] + 62 x[46] + 14 x[47] + 32 x[48]
   + 37 x[49] + 23 x[50] + 49 x[51] + 50 x[52] + 41 x[53] + 69 x[54]
   + 32 x[55] + 74 x[56] + 91 x[57] + 21 x[58] + 79 x[59] + 9 x[60]
   + 67 x[61] + 76 x[62] + 47 x[63] + 96 x[64] + 97 x[65] + 9 x[66]
   + 19 x[67] + 69 x[68] + 86 x[69] + 22 x[70] + 46 x[71] + 35 x[72]
   + 28 x[73] + 48 x[74] + 57 x[75] + 91 x[76] + 32 x[77] + 37 x[78]
   + 55 x[79] + 38 x[80] + 14 x[81] + 95 x[82] + 54 x[83] + 50 x[84]
   + 2 x[85] + 56 x[86] + 77 x[87] + 27 x[88] + 92 x[89] + 49 x[90]
   + 73 x[91] + x[92] + 72 x[93] + 53 x[94] + 22 x[95] + 62 x[96]
   + 37 x[97] + 45 x[98] + 69 x[99] + 62 x[100] + 29 x[101] + 27 x[102]
   + 49 x[103] + 6 x[104] + 27 x[105] + 32 x[106] + 83 x[107] + 95 x[108]
   + 98 x[109] + 71 x[110] + 44 x[111] + 22 x[112] + 10 x[113] + 38 x[114]
   + 15 x[115] + 60 x[116] + 18 x[117] + 22 x[118] + 69 x[119] + 4.8 r[0]
   + 0.9 r[1] + 9.5 r[2] + 7.6 r[3] + 1.3 r[4] + 6.2 r[5] + 2.6 r[6]
   + 8.4 r[7] + 4.2 r[8] + 2.7 r[9] + 2.8 r[10] + 6 r[11] + 8.9 r[12]
   + 8.5 r[13] + 9.3 r[14] + 4.9 r[15] + 4.2 r[16] + 2.5 r[17] + 5.8 r[18]
   + 7.1 r[19] + 2.2 r[20] + 8.8 r[21] + 6.9 r[22] + 7.5 r[23] + 9.7 r[24]
   + 0.5 r[25] + 7.1 r[26] + 9.2 r[27] + 9.4 r[28] + 8 r[29] + r[30]
   + 0.4 r[31] + 3.6 r[32] + 8.6 r[33] + 1.7 r[34] + 3 r[35] + 2.1 r[36]
   + 9.7 r[37] + 4.9 r[38] + 8.3 r[39] + 7.6 r[40] + 6.2 r[41] + 6.3 r[42]
   + 7.4 r[43] + 2.4 r[44] + 2.3 r[45] + 6.2 r[46] + 1.4 r[47] + 3.2 r[48]
   + 3.7 r[49] + 2.3 r[50] + 4.9 r[51] + 5 r[52] + 4.1 r[53] + 6.9 r[54]
   + 3.2 r[55] + 7.4 r[56] + 9.1 r[57] + 2.1 r[58] + 7.9 r[59] + 0.9 r[60]
   + 6.7 r[61] + 7.6 r[62] + 4.7 r[63] + 9.6 r[64] + 9.7 r[65] + 0.9 r[66]
   + 1.9 r[67] + 6.9 r[68] + 8.6 r[69] + 2.2 r[70] + 4.6 r[71] + 3.5 r[72]
   + 2.8 r[73] + 4.8 r[74] + 5.7 r[75] + 9.1 r[76] + 3.2 r[77] + 3.7 r[78]
   + 5.5 r[79] + 3.8 r[80] + 1.4 r[81] + 9.5 r[82] + 5.4 r[83] + 5 r[84]
   + 0.2 r[85] + 5.6 r[86] + 7.7 r[87] + 2.7 r[88] + 9.2 r[89] + 4.9 r[90]
   + 7.3 r[91] + 0.1 r[92] + 7.2 r[93] + 5.3 r[94] + 2.2 r[95] + 6.2 r[96]
   + 3.7 r[97] + 4.5 r[98] + 6.9 r[99] + 6.2 r[100] + 2.9 r[101]
   + 2.7 r[102] + 4.9 r[103] + 0.6 r[104] + 2.7 r[105] + 3.2 r[106]
   + 8.3 r[107] + 9.5 r[108] + 9.8 r[109] + 7.1 r[110] + 4.4 r[111]
   + 2.2 r[112] + r[113] + 3.8 r[114] + 1.5 r[115] + 6 r[116] + 1.8 r[117]
   + 2.2 r[118] + 6.9 r[119] <= 580
 primal_lower: 3.708110428651211 x[0] + 0.1619226837576924 x[1]
   + 1.283946114374893 x[2] + 2.804989931724507 x[3]
   + 1.577964761061142 x[4] + 2.684677968668634 x[5]
   + 3.815462078307486 x[6] + 1.937996000965701 x[7]
   + 1.17038772275668 x[8] + 2.799566790894294 x[9]
   + 4.474249836146796 x[10] + 3.781333029605215 x[11]
   + 2.402145722921462 x[12] + 2.78917660202139 x[13]
   + 3.815588702950457 x[14] + 0.6434904414550549 x[15]
   + 3.630665285024469 x[16] + 3.958964836211909 x[17]
   + 3.464171017652627 x[18] + 1.751754389433005 x[19]
   + 1.216706341680837 x[20] + 1.708166172475311 x[21]
   + 3.183315209374452 x[22] + 4.121623996703285 x[23]
   + 3.548180190607769 x[24] + 1.174356855653804 x[25]
   + 0.3811659597130591 x[26] + 4.465466580057004 x[27]
   + 2.411992127040241 x[28] + 2.424084161015164 x[29]
   + 0.2997923823225352 x[30] + 0.9986852017720702 x[31]
   + 2.840080074333985 x[32] + 1.824930084205116 x[33]
   + 1.446111032867349 x[34] + 0.7726231766130139 x[35]
   + 3.490688232015692 x[36] + 3.439039948934716 x[37]
   + 3.015478778054448 x[38] + 4.099216084401372 x[39]
   + 2.625707910030517 x[40] + 2.756837234077693 x[41]
   + 2.819328997626146 x[42] + 1.263961452414228 x[43]
   + 2.024349769851282 x[44] + 3.092023844844044 x[45]
   + 4.206724264352464 x[46] + 3.351046104516218 x[47]
   + 2.959148157690789 x[48] + 1.140151210832981 x[49]
   + 3.907435979866609 x[50] + 3.248901253824221 x[51]
   + 4.168773281888249 x[52] + 3.135217557144221 x[53]
   + 3.810409586800908 x[54] + 0.8544509796476363 x[55]
   + 4.0427840641864 x[56] + 2.177860053104045 x[57]
   + 1.227625321150824 x[58] + 2.586041623812711 x[59]
   + 0.201862568431192 x[60] + 4.549882726772386 x[61]
   + 2.054254666715661 x[62] + 0.1705482489348898 x[63]
   + 0.9720569545890492 x[64] + 0.0649285493207446 x[65]
   + 0.6501421717223457 x[66] + 1.385539288709164 x[67]
   + 0.4652169130552442 x[68] + 1.990261842442623 x[69]
   + 0.6764225672025053 x[70] + 2.874563011009212 x[71]
   + 4.43590629344963 x[72] + 0.5785404444633124 x[73]
   + 2.502090669292563 x[74] + 4.243936896038191 x[75]
   + 2.008902817249068 x[76] + 2.808357098015859 x[77]
   + 1.085703278005635 x[78] + 2.322986059125634 x[79]
   + 1.86041049553449 x[80] + 1.770123896358385 x[81]
   + 0.0471956673844711 x[82] + 3.997497844300841 x[83]
   + 2.823651814368439 x[84] + 2.093397769032562 x[85]
   + 2.880627537332431 x[86] + 2.186702139433702 x[87]
   + 1.907496544604839 x[88] + 1.640562219504502 x[89]
   + 2.483692932466111 x[90] + 2.242205231306051 x[91]
   + 1.912619318849144 x[92] + 4.08674838406429 x[93]
   + 2.108820293646867 x[94] + 1.754343623206168 x[95]
   + 4.070240042664752 x[96] + 2.22078941273809 x[97]
   + 0.4379213740056922 x[98] + 4.301970071085447 x[99]
   + 0.1768891941284348 x[100] + 1.704694579715635 x[101]
   + 0.9419742293393925 x[102] + 0.0160627094109448 x[103]
   + 0.9600088235147648 x[104] + 1.613944485064671 x[105]
   + 1.715107065367713 x[106] + 2.489490772981458 x[107]
   + 0.3819109403069957 x[108] + 3.136465190599409 x[109]
   + 4.20828839170768 x[110] + 1.276904568500181 x[111]
   + 2.323942543831335 x[112] + 3.676545724798746 x[113]
   + 0.7467190635207942 x[114] + 0.0732184325754046 x[115]
   + 1.725677045796651 x[116] + 2.921711180183753 x[117]
   + 3.252250380309487 x[118] + 1.511536333874948 x[119] + 98 u[0]
   + 10 u[1] + 88 u[2] + 53 u[3] + 82 u[4] + 20 u[5] + 19 u[6] + 6 u[7]
   + 79 u[8] + 68 u[9] + 94 u[10] + 25 u[11] + 14 u[12] + 62 u[13]
   + 3 u[14] + 79 u[15] + 3 u[16] + 26 u[17] + 55 u[18] + 16 u[19]
   + 11 u[20] + 78 u[21] + 2 u[22] + 9 u[23] + 31 u[24] + 90 u[25]
   + 48 u[26] + 50 u[27] + 48 u[28] + 37 u[29] + 88 u[30] + 78 u[31]
   + 22 u[32] + 71 u[33] + 62 u[34] + 35 u[35] + 38 u[36] + 63 u[37]
   + 22 u[38] + 25 u[39] + 53 u[40] + 36 u[41] + 52 u[42] + 64 u[43]
   + 53 u[44] + 93 u[45] + 68 u[46] + 84 u[47] + 9 u[48] + 82 u[49]
   + 25 u[50] + 58 u[51] + 71 u[52] + 62 u[53] + 71 u[54] + 10 u[55]
   + 71 u[56] + 97 u[57] + 98 u[58] + 84 u[59] + 67 u[60] + 5 u[61]
   + 54 u[62] + 5 u[63] + 18 u[64] + 62 u[65] + 15 u[66] + 45 u[67]
   + 58 u[68] + 84 u[69] + 28 u[70] + 4 u[71] + 56 u[72] + 41 u[73]
   + 18 u[74] + 55 u[75] + 21 u[76] + 53 u[77] + 31 u[78] + 65 u[79]
   + 56 u[80] + 44 u[81] + u[82] + 8 u[83] + 44 u[84] + 80 u[85] + 10 u[86]
   + 34 u[87] + 48 u[88] + 17 u[89] + 99 u[90] + 75 u[91] + 75 u[92]
   + 54 u[93] + 50 u[94] + 59 u[95] + 79 u[96] + 75 u[97] + 90 u[98]
   + 2 u[99] + 7 u[100] + 94 u[101] + 96 u[102] + 54 u[103] + 39 u[104]
   + 40 u[105] + 73 u[106] + 69 u[107] + 25 u[108] + 67 u[109] + 9 u[110]
   + 5 u[111] + 43 u[112] + 75 u[113] + 79 u[114] + 33 u[115] + 37 u[116]
   + 19 u[117] + 83 u[118] + 11 u[119] <= 26710
 mccormick1[0]: - u[0] + r[0] <= 0
 mccormick1[1]: - u[1] + r[1] <= 0
 mccormick1[2]: - u[2] + r[2] <= 0
 mccormick1[3]: - u[3] + r[3] <= 0
 mccormick1[4]: - u[4] + r[4] <= 0
 mccormick1[5]: - u[5] + r[5] <= 0
 mccormick1[6]: - u[6] + r[6] <= 0
 mccormick1[7]: - u[7] + r[7] <= 0
 mccormick1[8]: - u[8] + r[8] <= 0
 mccormick1[9]: - u[9] + r[9] <= 0
 mccormick1[10]: - u[10] + r[10] <= 0
 mccormick1[11]: - u[11] + r[11] <= 0
 mccormick1[12]: - u[12] + r[12] <= 0
 mccormick1[13]: - u[13] + r[13] <= 0
 mccormick1[14]: - u[14] + r[14] <= 0
 mccormick1[15]: - u[15] + r[15] <= 0
 mccormick1[16]: - u[16] + r[16] <= 0
 mccormick1[17]: - u[17] + r[17] <= 0
 mccormick1[18]: - u[18] + r[18] <= 0
 mccormick1[19]: - u[19] + r[19] <= 0
 mccormick1[20]: - u[20] + r[20] <= 0
 mccormick1[21]: - u[21] + r[21] <= 0
 mccormick1[22]: - u[22] + r[22] <= 0
 mccormick1[23]: - u[23] + r[23] <= 0
 mccormick1[24]: - u[24] + r[24] <= 0
 mccormick1[25]: - u[25] + r[25] <= 0
 mccormick1[26]: - u[26] + r[26] <= 0
 mccormick1[27]: - u[27] + r[27] <= 0
 mccormick1[28]: - u[28] + r[28] <= 0
 mccormick1[29]: - u[29] + r[29] <= 0
 mccormick1[30]: - u[30] + r[30] <= 0
 mccormick1[31]: - u[31] + r[31] <= 0
 mccormick1[32]: - u[32] + r[32] <= 0
 mccormick1[33]: - u[33] + r[33] <= 0
 mccormick1[34]: - u[34] + r[34] <= 0
 mccormick1[35]: - u[35] + r[35] <= 0
 mccormick1[36]: - u[36] + r[36] <= 0
 mccormick1[37]: - u[37] + r[37] <= 0
 mccormick1[38]: - u[38] + r[38] <= 0
 mccormick1[39]: - u[39] + r[39] <= 0
 mccormick1[40]: - u[40] + r[40] <= 0
 mccormick1[41]: - u[41] + r[41] <= 0
 mccormick1[42]: - u[42] + r[42] <= 0
 mccormick1[43]: - u[43] + r[43] <= 0
 mccormick1[44]: - u[44] + r[44] <= 0
 mccormick1[45]: - u[45] + r[45] <= 0
 mccormick1[46]: - u[46] + r[46] <= 0
 mccormick1[47]: - u[47] + r[47] <= 0
 mccormick1[48]: - u[48] + r[48] <= 0
 mccormick1[49]: - u[49] + r[49] <= 0
 mccormick1[50]: - u[50] + r[50] <= 0
 mccormick1[51]: - u[51] + r[51] <= 0
 mccormick1[52]: - u[52] + r[52] <= 0
 mccormick1[53]: - u[53] + r[53] <= 0
 mccormick1[54]: - u[54] + r[54] <= 0
 mccormick1[55]: - u[55] + r[55] <= 0
 mccormick1[56]: - u[56] + r[56] <= 0
 mccormick1[57]: - u[57] + r[57] <= 0
 mccormick1[58]: - u[58] + r[58] <= 0
 mccormick1[59]: - u[59] + r[59] <= 0
 mccormick1[60]: - u[60] + r[60] <= 0
 mccormick1[61]: - u[61] + r[61] <= 0
 mccormick1[62]: - u[62] + r[62] <= 0
 mccormick1[63]: - u[63] + r[63] <= 0
 mccormick1[64]: - u[64] + r[64] <= 0
 mccormick1[65]: - u[65] + r[65] <= 0
 mccormick1[66]: - u[66] + r[66] <= 0
 mccormick1[67]: - u[67] + r[67] <= 0
 mccormick1[68]: - u[68] + r[68] <= 0
 mccormick1[69]: - u[69] + r[69] <= 0
 mccormick1[70]: - u[70] + r[70] <= 0
 mccormick1[71]: - u[71] + r[71] <= 0
 mccormick1[72]: - u[72] + r[72] <= 0
 mccormick1[73]: - u[73] + r[73] <= 0
 mccormick1[74]: - u[74] + r[74] <= 0
 mccormick1[75]: - u[75] + r[75] <= 0
 mccormick1[76]: - u[76] + r[76] <= 0
 mccormick1[77]: - u[77] + r[77] <= 0
 mccormick1[78]: - u[78] + r[78] <= 0
 mccormick1[79]: - u[79] + r[79] <= 0
 mccormick1[80]: - u[80] + r[80] <= 0
 mccormick1[81]: - u[81] + r[81] <= 0
 mccormick1[82]: - u[82] + r[82] <= 0
 mccormick1[83]: - u[83] + r[83] <= 0
 mccormick1[84]: - u[84] + r[84] <= 0
 mccormick1[85]: - u[85] + r[85] <= 0
 mccormick1[86]: - u[86] + r[86] <= 0
 mccormick1[87]: - u[87] + r[87] <= 0
 mccormick1[88]: - u[88] + r[88] <= 0
 mccormick1[89]: - u[89] + r[89] <= 0
 mccormick1[90]: - u[90] + r[90] <= 0
 mccormick1[91]: - u[91] + r[91] <= 0
 mccormick1[92]: - u[92] + r[92] <= 0
 mccormick1[93]: - u[93] + r[93] <= 0
 mccormick1[94]: - u[94] + r[94] <= 0
 mccormick1[95]: - u[95] + r[95] <= 0
 mccormick1[96]: - u[96] + r[96] <= 0
 mccormick1[97]: - u[97] + r[97] <= 0
 mccormick1[98]: - u[98] + r[98] <= 0
 mccormick1[99]: - u[99] + r[99] <= 0
 mccormick1[100]: - u[100] + r[100] <= 0
 mccormick1[101]: - u[101] + r[101] <= 0
 mccormick1[102]: - u[102] + r[102] <= 0
 mccormick1[103]: - u[103] + r[103] <= 0
 mccormick1[104]: - u[104] + r[104] <= 0
 mccormick1[105]: - u[105] + r[105] <= 0
 mccormick1[106]: - u[106] + r[106] <= 0
 mccormick1[107]: - u[107] + r[107] <= 0
 mccormick1[108]: - u[108] + r[108] <= 0
 mccormick1[109]: - u[109] + r[109] <= 0
 mccormick1[110]: - u[110] + r[110] <= 0
 mccormick1[111]: - u[111] + r[111] <= 0
 mccormick1[112]: - u[112] + r[112] <= 0
 mccormick1[113]: - u[113] + r[113] <= 0
 mccormick1[114]: - u[114] + r[114] <= 0
 mccormick1[115]: - u[115] + r[115] <= 0
 mccormick1[116]: - u[116] + r[116] <= 0
 mccormick1[117]: - u[117] + r[117] <= 0
 mccormick1[118]: - u[118] + r[118] <= 0
 mccormick1[119]: - u[119] + r[119] <= 0
 mccormick2[0]: - x[0] + r[0] <= 0
 mccormick2[1]: - x[1] + r[1] <= 0
 mccormick2[2]: - x[2] + r[2] <= 0
 mccormick2[3]: - x[3] + r[3] <= 0
 mccormick2[4]: - x[4] + r[4] <= 0
 mccormick2[5]: - x[5] + r[5] <= 0
 mccormick2[6]: - x[6] + r[6] <= 0
 mccormick2[7]: - x[7] + r[7] <= 0
 mccormick2[8]: - x[8] + r[8] <= 0
 mccormick2[9]: - x[9] + r[9] <= 0
 mccormick2[10]: - x[10] + r[10] <= 0
 mccormick2[11]: - x[11] + r[11] <= 0
 mccormick2[12]: - x[12] + r[12] <= 0
 mccormick2[13]: - x[13] + r[13] <= 0
 mccormick2[14]: - x[14] + r[14] <= 0
 mccormick2[15]: - x[15] + r[15] <= 0
 mccormick2[16]: - x[16] + r[16] <= 0
 mccormick2[17]: - x[17] + r[17] <= 0
 mccormick2[18]: - x[18] + r[18] <= 0
 mccormick2[19]: - x[19] + r[19] <= 0
 mccormick2[20]: - x[20] + r[20] <= 0
 mccormick2[21]: - x[21] + r[21] <= 0
 mccormick2[22]: - x[22] + r[22] <= 0
 mccormick2[23]: - x[23] + r[23] <= 0
 mccormick2[24]: - x[24] + r[24] <= 0
 mccormick2[25]: - x[25] + r[25] <= 0
 mccormick2[26]: - x[26] + r[26] <= 0
 mccormick2[27]: - x[27] + r[27] <= 0
 mccormick2[28]: - x[28] + r[28] <= 0
 mccormick2[29]: - x[29] + r[29] <= 0
 mccormick2[30]: - x[30] + r[30] <= 0
 mccormick2[31]: - x[31] + r[31] <= 0
 mccormick2[32]: - x[32] + r[32] <= 0
 mccormick2[33]: - x[33] + r[33] <= 0
 mccormick2[34]: - x[34] + r[34] <= 0
 mccormick2[35]: - x[35] + r[35] <= 0
 mccormick2[36]: - x[36] + r[36] <= 0
 mccormick2[37]: - x[37] + r[37] <= 0
 mccormick2[38]: - x[38] + r[38] <= 0
 mccormick2[39]: - x[39] + r[39] <= 0
 mccormick2[40]: - x[40] + r[40] <= 0
 mccormick2[41]: - x[41] + r[41] <= 0
 mccormick2[42]: - x[42] + r[42] <= 0
 mccormick2[43]: - x[43] + r[43] <= 0
 mccormick2[44]: - x[44] + r[44] <= 0
 mccormick2[45]: - x[45] + r[45] <= 0
 mccormick2[46]: - x[46] + r[46] <= 0
 mccormick2[47]: - x[47] + r[47] <= 0
 mccormick2[48]: - x[48] + r[48] <= 0
 mccormick2[49]: - x[49] + r[49] <= 0
 mccormick2[50]: - x[50] + r[50] <= 0
 mccormick2[51]: - x[51] + r[51] <= 0
 mccormick2[52]: - x[52] + r[52] <= 0
 mccormick2[53]: - x[53] + r[53] <= 0
 mccormick2[54]: - x[54] + r[54] <= 0
 mccormick2[55]: - x[55] + r[55] <= 0
 mccormick2[56]: - x[56] + r[56] <= 0
 mccormick2[57]: - x[57] + r[57] <= 0
 mccormick2[58]: - x[58] + r[58] <= 0
 mccormick2[59]: - x[59] + r[59] <= 0
 mccormick2[60]: - x[60] + r[60] <= 0
 mccormick2[61]: - x[61] + r[61] <= 0
 mccormick2[62]: - x[62] + r[62] <= 0
 mccormick2[63]: - x[63] + r[63] <= 0
 mccormick2[64]: - x[64] + r[64] <= 0
 mccormick2[65]: - x[65] + r[65] <= 0
 mccormick2[66]: - x[66] + r[66] <= 0
 mccormick2[67]: - x[67] + r[67] <= 0
 mccormick2[68]: - x[68] + r[68] <= 0
 mccormick2[69]: - x[69] + r[69] <= 0
 mccormick2[70]: - x[70] + r[70] <= 0
 mccormick2[71]: - x[71] + r[71] <= 0
 mccormick2[72]: - x[72] + r[72] <= 0
 mccormick2[73]: - x[73] + r[73] <= 0
 mccormick2[74]: - x[74] + r[74] <= 0
 mccormick2[75]: - x[75] + r[75] <= 0
 mccormick2[76]: - x[76] + r[76] <= 0
 mccormick2[77]: - x[77] + r[77] <= 0
 mccormick2[78]: - x[78] + r[78] <= 0
 mccormick2[79]: - x[79] + r[79] <= 0
 mccormick2[80]: - x[80] + r[80] <= 0
 mccormick2[81]: - x[81] + r[81] <= 0
 mccormick2[82]: - x[82] + r[82] <= 0
 mccormick2[83]: - x[83] + r[83] <= 0
 mccormick2[84]: - x[84] + r[84] <= 0
 mccormick2[85]: - x[85] + r[85] <= 0
 mccormick2[86]: - x[86] + r[86] <= 0
 mccormick2[87]: - x[87] + r[87] <= 0
 mccormick2[88]: - x[88] + r[88] <= 0
 mccormick2[89]: - x[89] + r[89] <= 0
 mccormick2[90]: - x[90] + r[90] <= 0
 mccormick2[91]: - x[91] + r[91] <= 0
 mccormick2[92]: - x[92] + r[92] <= 0
 mccormick2[93]: - x[93] + r[93] <= 0
 mccormick2[94]: - x[94] + r[94] <= 0
 mccormick2[95]: - x[95] + r[95] <= 0
 mccormick2[96]: - x[96] + r[96] <= 0
 mccormick2[97]: - x[97] + r[97] <= 0
 mccormick2[98]: - x[98] + r[98] <= 0
 mccormick2[99]: - x[99] + r[99] <= 0
 mccormick2[100]: - x[100] + r[100] <= 0
 mccormick2[101]: - x[101] + r[101] <= 0
 mccormick2[102]: - x[102] + r[102] <= 0
 mccormick2[103]: - x[103] + r[103] <= 0
 mccormick2[104]: - x[104] + r[104] <= 0
 mccormick2[105]: - x[105] + r[105] <= 0
 mccormick2[106]: - x[106] + r[106] <= 0
 mccormick2[107]: - x[107] + r[107] <= 0
 mccormick2[108]: - x[108] + r[108] <= 0
 mccormick2[109]: - x[109] + r[109] <= 0
 mccormick2[110]: - x[110] + r[110] <= 0
 mccormick2[111]: - x[111] + r[111] <= 0
 mccormick2[112]: - x[112] + r[112] <= 0
 mccormick2[113]: - x[113] + r[113] <= 0
 mccormick2[114]: - x[114] + r[114] <= 0
 mccormick2[115]: - x[115] + r[115] <= 0
 mccormick2[116]: - x[116] + r[116] <= 0
 mccormick2[117]: - x[117] + r[117] <= 0
 mccormick2[118]: - x[118] + r[118] <= 0
 mccormick2[119]: - x[119] + r[119] <= 0
 mccormick3[0]: x[0] + u[0] - r[0] <= 1
 mccormick3[1]: x[1] + u[1] - r[1] <= 1
 mccormick3[2]: x[2] + u[2] - r[2] <= 1
 mccormick3[3]: x[3] + u[3] - r[3] <= 1
 mccormick3[4]: x[4] + u[4] - r[4] <= 1
 mccormick3[5]: x[5] + u[5] - r[5] <= 1
 mccormick3[6]: x[6] + u[6] - r[6] <= 1
 mccormick3[7]: x[7] + u[7] - r[7] <= 1
 mccormick3[8]: x[8] + u[8] - r[8] <= 1
 mccormick3[9]: x[9] + u[9] - r[9] <= 1
 mccormick3[10]: x[10] + u[10] - r[10] <= 1
 mccormick3[11]: x[11] + u[11] - r[11] <= 1
 mccormick3[12]: x[12] + u[12] - r[12] <= 1
 mccormick3[13]: x[13] + u[13] - r[13] <= 1
 mccormick3[14]: x[14] + u[14] - r[14] <= 1
 mccormick3[15]: x[15] + u[15] - r[15] <= 1
 mccormick3[16]: x[16] + u[16] - r[16] <= 1
 mccormick3[17]: x[17] + u[17] - r[17] <= 1
 mccormick3[18]: x[18] + u[18] - r[18] <= 1
 mccormick3[19]: x[19] + u[19] - r[19] <= 1
 mccormick3[20]: x[20] + u[20] - r[20] <= 1
 mccormick3[21]: x[21] + u[21] - r[21] <= 1
 mccormick3[22]: x[22] + u[22] - r[22] <= 1
 mccormick3[23]: x[23] + u[23] - r[23] <= 1
 mccormick3[24]: x[24] + u[24] - r[24] <= 1
 mccormick3[25]: x[25] + u[25] - r[25] <= 1
 mccormick3[26]: x[26] + u[26] - r[26] <= 1
 mccormick3[27]: x[27] + u[27] - r[27] <= 1
 mccormick3[28]: x[28] + u[28] - r[28] <= 1
 mccormick3[29]: x[29] + u[29] - r[29] <= 1
 mccormick3[30]: x[30] + u[30] - r[30] <= 1
 mccormick3[31]: x[31] + u[31] - r[31] <= 1
 mccormick3[32]: x[32] + u[32] - r[32] <= 1
 mccormick3[33]: x[33] + u[33] - r[33] <= 1
 mccormick3[34]: x[34] + u[34] - r[34] <= 1
 mccormick3[35]: x[35] + u[35] - r[35] <= 1
 mccormick3[36]: x[36] + u[36] - r[36] <= 1
 mccormick3[37]: x[37] + u[37] - r[37] <= 1
 mccormick3[38]: x[38] + u[38] - r[38] <= 1
 mccormick3[39]: x[39] + u[39] - r[39] <= 1
 mccormick3[40]: x[40] + u[40] - r[40] <= 1
 mccormick3[41]: x[41] + u[41] - r[41] <= 1
 mccormick3[42]: x[42] + u[42] - r[42] <= 1
 mccormick3[43]: x[43] + u[43] - r[43] <= 1
 mccormick3[44]: x[44] + u[44] - r[44] <= 1
 mccormick3[45]: x[45] + u[45] - r[45] <= 1
 mccormick3[46]: x[46] + u[46] - r[46] <= 1
 mccormick3[47]: x[47] + u[47] - r[47] <= 1
 mccormick3[48]: x[48] + u[48] - r[48] <= 1
 mccormick3[49]: x[49] + u[49] - r[49] <= 1
 mccormick3[50]: x[50] + u[50] - r[50] <= 1
 mccormick3[51]: x[51] + u[51] - r[51] <= 1
 mccormick3[52]: x[52] + u[52] - r[52] <= 1
 mccormick3[53]: x[53] + u[53] - r[53] <= 1
 mccormick3[54]: x[54] + u[54] - r[54] <= 1
 mccormick3[55]: x[55] + u[55] - r[55] <= 1
 mccormick3[56]: x[56] + u[56] - r[56] <= 1
 mccormick3[57]: x[57] + u[57] - r[57] <= 1
 mccormick3[58]: x[58] + u[58] - r[58] <= 1
 mccormick3[59]: x[59] + u[59] - r[59] <= 1
 mccormick3[60]: x[60] + u[60] - r[60] <= 1
 mccormick3[61]: x[61] + u[61] - r[61] <= 1
 mccormick3[62]: x[62] + u[62] - r[62] <= 1
 mccormick3[63]: x[63] + u[63] - r[63] <= 1
 mccormick3[64]: x[64] + u[64] - r[64] <= 1
 mccormick3[65]: x[65] + u[65] - r[65] <= 1
 mccormick3[66]: x[66] + u[66] - r[66] <= 1
 mccormick3[67]: x[67] + u[67] - r[67] <= 1
 mccormick3[68]: x[68] + u[68] - r[68] <= 1
 mccormick3[69]: x[69] + u[69] - r[69] <= 1
 mccormick3[70]: x[70] + u[70] - r[70] <= 1
 mccormick3[71]: x[71] + u[71] - r[71] <= 1
 mccormick3[72]: x[72] + u[72] - r[72] <= 1
 mccormick3[73]: x[73] + u[73] - r[73] <= 1
 mccormick3[74]: x[74] + u[74] - r[74] <= 1
 mccormick3[75]: x[75] + u[75] - r[75] <= 1
 mccormick3[76]: x[76] + u[76] - r[76] <= 1
 mccormick3[77]: x[77] + u[77] - r[77] <= 1
 mccormick3[78]: x[78] + u[78] - r[78] <= 1
 mccormick3[79]: x[79] + u[79] - r[79] <= 1
 mccormick3[80]: x[80] + u[80] - r[80] <= 1
 mccormick3[81]: x[81] + u[81] - r[81] <= 1
 mccormick3[82]: x[82] + u[82] - r[82] <= 1
 mccormick3[83]: x[83] + u[83] - r[83] <= 1
 mccormick3[84]: x[84] + u[84] - r[84] <= 1
 mccormick3[85]: x[85] + u[85] - r[85] <= 1
 mccormick3[86]: x[86] + u[86] - r[86] <= 1
 mccormick3[87]: x[87] + u[87] - r[87] <= 1
 mccormick3[88]: x[88] + u[88] - r[88] <= 1
 mccormick3[89]: x[89] + u[89] - r[89] <= 1
 mccormick3[90]: x[90] + u[90] - r[90] <= 1
 mccormick3[91]: x[91] + u[91] - r[91] <= 1
 mccormick3[92]: x[92] + u[92] - r[92] <= 1
 mccormick3[93]: x[93] + u[93] - r[93] <= 1
 mccormick3[94]: x[94] + u[94] - r[94] <= 1
 mccormick3[95]: x[95] + u[95] - r[95] <= 1
 mccormick3[96]: x[96] + u[96] - r[96] <= 1
 mccormick3[97]: x[97] + u[97] - r[97] <= 1
 mccormick3[98]: x[98] + u[98] - r[98] <= 1
 mccormick3[99]: x[99] + u[99] - r[99] <= 1
 mccormick3[100]: x[100] + u[100] - r[100] <= 1
 mccormick3[101]: x[101] + u[101] - r[101] <= 1
 mccormick3[102]: x[102] + u[102] - r[102] <= 1
 mccormick3[103]: x[103] + u[103] - r[103] <= 1
 mccormick3[104]: x[104] + u[104] - r[104] <= 1
 mccormick3[105]: x[105] + u[105] - r[105] <= 1
 mccormick3[106]: x[106] + u[106] - r[106] <= 1
 mccormick3[107]: x[107] + u[107] - r[107] <= 1
 mccormick3[108]: x[108] + u[108] - r[108] <= 1
 mccormick3[109]: x[109] + u[109] - r[109] <= 1
 mccormick3[110]: x[110] + u[110] - r[110] <= 1
 mccormick3[111]: x[111] + u[111] - r[111] <= 1
 mccormick3[112]: x[112] + u[112] - r[112] <= 1
 mccormick3[113]: x[113] + u[113] - r[113] <= 1
 mccormick3[114]: x[114] + u[114] - r[114] <= 1
 mccormick3[115]: x[115] + u[115] - r[115] <= 1
 mccormick3[116]: x[116] + u[116] - r[116] <= 1
 mccormick3[117]: x[117] + u[117] - r[117] <= 1
 mccormick3[118]: x[118] + u[118] - r[118] <= 1
 mccormick3[119]: x[119] + u[119] - r[119] <= 1
Bounds
Binaries
 x[0] x[1] x[2] x[3] x[4] x[5] x[6] x[7] x[8] x[9] x[10] x[11] x[12] x[13]
 x[14] x[15] x[16] x[17] x[18] x[19] x[20] x[21] x[22] x[23] x[24] x[25]
 x[26] x[27] x[28] x[29] x[30] x[31] x[32] x[33] x[34] x[35] x[36] x[37]
 x[38] x[39] x[40] x[41] x[42] x[43] x[44] x[45] x[46] x[47] x[48] x[49]
 x[50] x[51] x[52] x[53] x[54] x[55] x[56] x[57] x[58] x[59] x[60] x[61]
 x[62] x[63] x[64] x[65] x[66] x[67] x[68] x[69] x[70] x[71] x[72] x[73]
 x[74] x[75] x[76] x[77] x[78] x[79] x[80] x[81] x[82] x[83] x[84] x[85]
 x[86] x[87] x[88] x[89] x[90] x[91] x[92] x[93] x[94] x[95] x[96] x[97]
 x[98] x[99] x[100] x[101] x[102] x[103] x[104] x[105] x[106] x[107] x[108]
 x[109] x[110] x[111] x[112] x[113] x[114] x[115] x[116] x[117] x[118]
 x[119] u[0] u[1] u[2] u[3] u[4] u[5] u[6] u[7] u[8] u[9] u[10] u[11] u[12]
 u[13] u[14] u[15] u[16] u[17] u[18] u[19] u[20] u[21] u[22] u[23] u[24]
 u[25] u[26] u[27] u[28] u[29] u[30] u[31] u[32] u[33] u[34] u[35] u[36]
 u[37] u[38] u[39] u[40] u[41] u[42] u[43] u[44] u[45] u[46] u[47] u[48]
 u[49] u[50] u[51] u[52] u[53] u[54] u[55] u[56] u[57] u[58] u[59] u[60]
 u[61] u[62] u[63] u[64] u[65] u[66] u[67] u[68] u[69] u[70] u[71] u[72]
 u[73] u[74] u[75] u[76] u[77] u[78] u[79] u[80] u[81] u[82] u[83] u[84]
 u[85] u[86] u[87] u[88] u[89] u[90] u[91] u[92] u[93] u[94] u[95] u[96]
 u[97] u[98] u[99] u[100] u[101] u[102] u[103] u[104] u[105] u[106] u[107]
 u[108] u[109] u[110] u[111] u[112] u[113] u[114] u[115] u[116] u[117]
 u[118] u[119] r[0] r[1] r[2] r[3] r[4] r[5] r[6] r[7] r[8] r[9] r[10]
 r[11] r[12] r[13] r[14] r[15] r[16] r[17] r[18] r[19] r[20] r[21] r[22]
 r[23] r[24] r[25] r[26] r[27] r[28] r[29] r[30] r[31] r[32] r[33] r[34]
 r[35] r[36] r[37] r[38] r[39] r[40] r[41] r[42] r[43] r[44] r[45] r[46]
 r[47] r[48] r[49] r[50] r[51] r[52] r[53] r[54] r[55] r[56] r[57] r[58]
 r[59] r[60] r[61] r[62] r[63] r[64] r[65] r[66] r[67] r[68] r[69] r[70]
 r[71] r[72] r[73] r[74] r[75] r[76] r[77] r[78] r[79] r[80] r[81] r[82]
 r[83] r[84] r[85] r[86] r[87] r[88] r[89] r[90] r[91] r[92] r[93] r[94]
 r[95] r[96] r[97] r[98] r[99] r[100] r[101] r[102] r[103] r[104] r[105]
 r[106] r[107] r[108] r[109] r[110] r[111] r[112] r[113] r[114] r[115]
 r[116] r[117] r[118] r[119]
End
