instances/knapsack/discrete/knapsack_120_9.kp
23783
120
580

48 4.8 49
9 0.9 49
95 9.5 31
76 7.6 35
13 1.3 52
62 6.2 88
26 2.6 64
84 8.4 30
42 4.2 77
27 2.7 13
28 2.8 34
60 6.0 66
89 8.9 82
85 8.5 29
93 9.3 54
49 4.9 31
42 4.2 1
25 2.5 5
58 5.8 29
71 7.1 100
22 2.2 16
88 8.8 6
69 6.9 59
75 7.5 15
97 9.7 12
5 0.5 81
71 7.1 91
92 9.2 86
94 9.4 41
80 8.0 19
10 1.0 8
4 0.4 71
36 3.6 3
86 8.6 2
17 1.7 90
30 3.0 20
21 2.1 36
97 9.7 38
49 4.9 93
83 8.3 98
76 7.6 83
62 6.2 28
63 6.3 24
74 7.4 78
24 2.4 73
23 2.3 54
62 6.2 55
14 1.4 91
32 3.2 79
37 3.7 36
23 2.3 42
49 4.9 1
50 5.0 70
41 4.1 60
69 6.9 63
32 3.2 81
74 7.4 33
91 9.1 7
21 2.1 63
79 7.9 74
9 0.9 31
67 6.7 93
76 7.6 48
47 4.7 56
96 9.6 45
97 9.7 44
9 0.9 100
19 1.9 96
69 6.9 95
86 8.6 68
22 2.2 100
46 4.6 18
35 3.5 28
28 2.8 28
48 4.8 49
57 5.7 97
91 9.1 33
32 3.2 84
37 3.7 59
55 5.5 38
38 3.8 2
14 1.4 77
95 9.5 12
54 5.4 45
50 5.0 56
2 0.2 99
56 5.6 65
77 7.7 98
27 2.7 79
92 9.2 97
49 4.9 73
73 7.3 44
1 0.1 32
72 7.2 95
53 5.3 39
22 2.2 13
62 6.2 100
37 3.7 39
45 4.5 43
69 6.9 43
62 6.2 63
29 2.9 24
27 2.7 21
49 4.9 36
6 0.6 66
27 2.7 70
32 3.2 89
83 8.3 91
95 9.5 37
98 9.8 3
71 7.1 80
44 4.4 53
22 2.2 88
10 1.0 82
38 3.8 21
15 1.5 12
60 6.0 42
18 1.8 72
22 2.2 33
69 6.9 46

26710
551

[3.7081104286512114 0.1619226837576924 1.2839461143748934 2.8049899317245073 1.5779647610611423 2.684677968668634 3.8154620783074855 1.9379960009657011 1.1703877227566801 2.7995667908942936 4.474249836146796 3.781333029605215 2.402145722921462 2.78917660202139 3.815588702950457 0.6434904414550549 3.630665285024469 3.9589648362119094 3.464171017652627 1.7517543894330054 1.216706341680837 1.708166172475311 3.183315209374452 4.121623996703285 3.548180190607769 1.1743568556538042 0.38116595971305905 4.465466580057004 2.411992127040241 2.4240841610151636 0.2997923823225352 0.9986852017720702 2.840080074333985 1.8249300842051157 1.4461110328673488 0.7726231766130139 3.490688232015692 3.4390399489347163 3.015478778054448 4.099216084401372 2.6257079100305165 2.7568372340776928 2.819328997626146 1.263961452414228 2.024349769851282 3.092023844844044 4.206724264352464 3.3510461045162176 2.959148157690789 1.1401512108329808 3.907435979866609 3.2489012538242212 4.1687732818882495 3.135217557144221 3.8104095868009082 0.8544509796476363 4.0427840641864 2.177860053104045 1.2276253211508237 2.586041623812711 0.20186256843119205 4.549882726772386 2.054254666715661 0.17054824893488976 0.9720569545890492 0.06492854932074457 0.6501421717223457 1.3855392887091644 0.4652169130552442 1.9902618424426233 0.6764225672025053 2.8745630110092124 4.43590629344963 0.5785404444633124 2.5020906692925626 4.243936896038191 2.008902817249068 2.8083570980158594 1.0857032780056346 2.322986059125634 1.8604104955344896 1.7701238963583845 0.04719566738447112 3.997497844300841 2.8236518143684393 2.0933977690325625 2.880627537332431 2.1867021394337023 1.9074965446048389 1.640562219504502 2.483692932466111 2.242205231306051 1.9126193188491443 4.08674838406429 2.108820293646867 1.7543436232061682 4.070240042664752 2.2207894127380903 0.4379213740056922 4.301970071085447 0.17688919412843476 1.7046945797156348 0.9419742293393925 0.016062709410944814 0.9600088235147648 1.6139444850646707 1.7151070653677132 2.4894907729814584 0.3819109403069957 3.136465190599409 4.20828839170768 1.2769045685001807 2.3239425438313353 3.676545724798746 0.7467190635207942 0.07321843257540459 1.7256770457966513 2.9217111801837525 3.2522503803094867 1.511536333874948]

[98 10 88 53 82 20 19 6 79 68 94 25 14 62 3 79 3 26 55 16 11 78 2 9 31 90 48 50 48 37 88 78 22 71 62 35 38 63 22 25 53 36 52 64 53 93 68 84 9 82 25 58 71 62 71 10 71 97 98 84 67 5 54 5 18 62 15 45 58 84 28 4 56 41 18 55 21 53 31 65 56 44 1 8 44 80 10 34 48 17 99 75 75 54 50 59 79 75 90 2 7 94 96 54 39 40 73 69 25 67 9 5 43 75 79 33 37 19 83 11]
